1 2 3 4 5 6 7 8 9
1 0 3 64 80 26 49 64 47 46
2 3 0 88 5 34 83 37 43 27
3 64 88 0 7 56 29 60 44 6
4 80 5 7 0 23 43 63 44 41
5 26 34 56 23 0 12 40 22 20
6 49 83 29 43 12 0 10 63 70
7 64 37 60 63 40 10 0 9 22
8 47 43 44 44 22 63 9 0 8
9 46 27 6 41 20 70 22 8 0
